50
1 0 22
2 0 29
2 1 20
3 0 37
3 1 14
3 2 21
4 0 13
4 1 7
4 2 29
4 3 5
5 0 1
5 1 25
5 2 37
5 3 39
5 4 32
6 0 29
6 1 35
6 2 1
6 3 20
6 4 19
6 5 11
7 0 28
7 1 9
7 2 11
7 3 13
7 4 8
7 5 3
7 6 22
8 0 1
8 1 27
8 2 23
8 3 24
8 4 17
8 5 33
8 6 17
8 7 24
9 0 21
9 1 5
9 2 32
9 3 22
9 4 23
9 5 18
9 6 32
9 7 38
9 8 38
10 0 34
10 1 34
10 2 2
10 3 39
10 4 2
10 5 22
10 6 7
10 7 12
10 8 22
10 9 9
11 0 31
11 1 24
11 2 23
11 3 11
11 4 24
11 5 36
11 6 8
11 7 24
11 8 21
11 9 30
11 10 20
12 0 22
12 1 36
12 2 35
12 3 20
12 4 1
12 5 11
12 6 5
12 7 40
12 8 8
12 9 12
12 10 1
12 11 8
13 0 8
13 1 24
13 2 5
13 3 1
13 4 11
13 5 1
13 6 28
13 7 29
13 8 13
13 9 7
13 10 35
13 11 34
13 12 18
14 0 14
14 1 6
14 2 17
14 3 3
14 4 22
14 5 24
14 6 36
14 7 2
14 8 23
14 9 28
14 10 6
14 11 7
14 12 30
14 13 11
15 0 33
15 1 31
15 2 8
15 3 27
15 4 30
15 5 36
15 6 20
15 7 3
15 8 27
15 9 35
15 10 20
15 11 33
15 12 24
15 13 14
15 14 4
16 0 3
16 1 26
16 2 39
16 3 20
16 4 30
16 5 3
16 6 31
16 7 30
16 8 14
16 9 36
16 10 12
16 11 17
16 12 31
16 13 10
16 14 11
16 15 39
17 0 27
17 1 25
17 2 37
17 3 14
17 4 28
17 5 10
17 6 38
17 7 5
17 8 29
17 9 19
17 10 1
17 11 18
17 12 5
17 13 2
17 14 8
17 15 2
17 16 16
18 0 13
18 1 11
18 2 23
18 3 26
18 4 40
18 5 23
18 6 37
18 7 5
18 8 1
18 9 13
18 10 8
18 11 24
18 12 19
18 13 28
18 14 10
18 15 3
18 16 32
18 17 8
19 0 27
19 1 21
19 2 20
19 3 31
19 4 36
19 5 12
19 6 21
19 7 7
19 8 6
19 9 22
19 10 21
19 11 11
19 12 17
19 13 37
19 14 30
19 15 11
19 16 24
19 17 6
19 18 36
20 0 40
20 1 19
20 2 10
20 3 14
20 4 5
20 5 14
20 6 35
20 7 36
20 8 19
20 9 11
20 10 28
20 11 8
20 12 34
20 13 4
20 14 27
20 15 8
20 16 24
20 17 15
20 18 39
20 19 15
21 0 1
21 1 5
21 2 38
21 3 28
21 4 35
21 5 17
21 6 38
21 7 11
21 8 23
21 9 5
21 10 11
21 11 14
21 12 24
21 13 11
21 14 22
21 15 18
21 16 7
21 17 9
21 18 39
21 19 37
21 20 29
22 0 37
22 1 29
22 2 7
22 3 5
22 4 22
22 5 3
22 6 30
22 7 33
22 8 39
22 9 8
22 10 40
22 11 34
22 12 5
22 13 20
22 14 26
22 15 22
22 16 35
22 17 14
22 18 26
22 19 7
22 20 5
22 21 11
23 0 28
23 1 10
23 2 23
23 3 35
23 4 6
23 5 31
23 6 27
23 7 9
23 8 7
23 9 6
23 10 10
23 11 24
23 12 16
23 13 28
23 14 30
23 15 24
23 16 15
23 17 21
23 18 2
23 19 40
23 20 28
23 21 3
23 22 37
24 0 3
24 1 23
24 2 27
24 3 7
24 4 40
24 5 38
24 6 23
24 7 36
24 8 38
24 9 37
24 10 31
24 11 39
24 12 16
24 13 27
24 14 17
24 15 6
24 16 17
24 17 16
24 18 12
24 19 10
24 20 21
24 21 30
24 22 6
24 23 12
25 0 13
25 1 33
25 2 29
25 3 26
25 4 23
25 5 40
25 6 19
25 7 13
25 8 28
25 9 30
25 10 27
25 11 10
25 12 12
25 13 16
25 14 16
25 15 39
25 16 1
25 17 21
25 18 3
25 19 11
25 20 5
25 21 14
25 22 14
25 23 23
25 24 7
26 0 16
26 1 3
26 2 38
26 3 33
26 4 12
26 5 8
26 6 15
26 7 2
26 8 15
26 9 37
26 10 21
26 11 23
26 12 20
26 13 28
26 14 4
26 15 38
26 16 17
26 17 20
26 18 15
26 19 14
26 20 14
26 21 29
26 22 38
26 23 28
26 24 23
26 25 31
27 0 14
27 1 8
27 2 24
27 3 30
27 4 8
27 5 13
27 6 36
27 7 5
27 8 6
27 9 16
27 10 6
27 11 13
27 12 31
27 13 25
27 14 30
27 15 18
27 16 39
27 17 20
27 18 37
27 19 28
27 20 28
27 21 12
27 22 33
27 23 2
27 24 7
27 25 25
27 26 7
28 0 18
28 1 22
28 2 36
28 3 17
28 4 21
28 5 7
28 6 16
28 7 33
28 8 14
28 9 21
28 10 15
28 11 20
28 12 9
28 13 19
28 14 40
28 15 16
28 16 1
28 17 32
28 18 18
28 19 39
28 20 34
28 21 32
28 22 7
28 23 35
28 24 1
28 25 17
28 26 24
28 27 37
29 0 24
29 1 17
29 2 6
29 3 5
29 4 32
29 5 15
29 6 31
29 7 30
29 8 15
29 9 24
29 10 17
29 11 14
29 12 28
29 13 9
29 14 34
29 15 22
29 16 26
29 17 5
29 18 34
29 19 40
29 20 10
29 21 5
29 22 31
29 23 14
29 24 12
29 25 7
29 26 7
29 27 33
29 28 15
30 0 4
30 1 17
30 2 15
30 3 4
30 4 1
30 5 1
30 6 13
30 7 23
30 8 36
30 9 2
30 10 15
30 11 11
30 12 13
30 13 19
30 14 10
30 15 27
30 16 5
30 17 30
30 18 2
30 19 29
30 20 37
30 21 33
30 22 27
30 23 36
30 24 29
30 25 8
30 26 10
30 27 3
30 28 21
30 29 4
31 0 40
31 1 33
31 2 5
31 3 21
31 4 21
31 5 28
31 6 38
31 7 35
31 8 24
31 9 31
31 10 14
31 11 21
31 12 12
31 13 16
31 14 31
31 15 21
31 16 14
31 17 30
31 18 36
31 19 37
31 20 24
31 21 40
31 22 5
31 23 40
31 24 32
31 25 2
31 26 33
31 27 40
31 28 7
31 29 36
31 30 22
32 0 5
32 1 10
32 2 16
32 3 13
32 4 9
32 5 6
32 6 4
32 7 40
32 8 3
32 9 16
32 10 31
32 11 24
32 12 14
32 13 18
32 14 22
32 15 4
32 16 29
32 17 3
32 18 21
32 19 8
32 20 20
32 21 9
32 22 36
32 23 17
32 24 2
32 25 17
32 26 21
32 27 28
32 28 24
32 29 20
32 30 12
32 31 40
33 0 11
33 1 1
33 2 17
33 3 35
33 4 32
33 5 23
33 6 39
33 7 34
33 8 14
33 9 30
33 10 36
33 11 6
33 12 22
33 13 26
33 14 28
33 15 37
33 16 36
33 17 15
33 18 6
33 19 19
33 20 12
33 21 16
33 22 38
33 23 28
33 24 22
33 25 1
33 26 11
33 27 28
33 28 36
33 29 20
33 30 6
33 31 25
33 32 40
34 0 11
34 1 36
34 2 7
34 3 37
34 4 14
34 5 13
34 6 39
34 7 5
34 8 4
34 9 31
34 10 35
34 11 12
34 12 24
34 13 7
34 14 14
34 15 36
34 16 25
34 17 24
34 18 34
34 19 6
34 20 33
34 21 12
34 22 5
34 23 22
34 24 20
34 25 27
34 26 3
34 27 32
34 28 9
34 29 38
34 30 6
34 31 16
34 32 11
34 33 36
35 0 32
35 1 1
35 2 14
35 3 1
35 4 14
35 5 33
35 6 10
35 7 28
35 8 5
35 9 20
35 10 26
35 11 10
35 12 35
35 13 39
35 14 19
35 15 7
35 16 1
35 17 18
35 18 17
35 19 1
35 20 36
35 21 33
35 22 1
35 23 2
35 24 37
35 25 21
35 26 15
35 27 13
35 28 2
35 29 31
35 30 23
35 31 2
35 32 15
35 33 30
35 34 20
36 0 40
36 1 26
36 2 17
36 3 13
36 4 5
36 5 18
36 6 2
36 7 33
36 8 18
36 9 10
36 10 10
36 11 37
36 12 36
36 13 11
36 14 18
36 15 9
36 16 26
36 17 8
36 18 15
36 19 3
36 20 1
36 21 2
36 22 39
36 23 8
36 24 14
36 25 23
36 26 36
36 27 40
36 28 34
36 29 20
36 30 14
36 31 35
36 32 36
36 33 36
36 34 31
36 35 20
37 0 38
37 1 28
37 2 12
37 3 26
37 4 2
37 5 17
37 6 5
37 7 40
37 8 35
37 9 11
37 10 29
37 11 10
37 12 17
37 13 9
37 14 30
37 15 5
37 16 38
37 17 38
37 18 11
37 19 21
37 20 40
37 21 24
37 22 22
37 23 15
37 24 7
37 25 25
37 26 1
37 27 19
37 28 11
37 29 21
37 30 3
37 31 5
37 32 2
37 33 29
37 34 18
37 35 4
37 36 15
38 0 17
38 1 22
38 2 34
38 3 31
38 4 40
38 5 20
38 6 18
38 7 34
38 8 34
38 9 22
38 10 32
38 11 13
38 12 26
38 13 4
38 14 18
38 15 23
38 16 20
38 17 35
38 18 24
38 19 22
38 20 1
38 21 17
38 22 6
38 23 4
38 24 8
38 25 6
38 26 19
38 27 24
38 28 17
38 29 38
38 30 20
38 31 9
38 32 11
38 33 27
38 34 23
38 35 8
38 36 27
38 37 7
39 0 23
39 1 40
39 2 31
39 3 31
39 4 22
39 5 5
39 6 25
39 7 1
39 8 19
39 9 2
39 10 7
39 11 30
39 12 17
39 13 30
39 14 23
39 15 40
39 16 22
39 17 8
39 18 32
39 19 40
39 20 31
39 21 23
39 22 24
39 23 37
39 24 17
39 25 15
39 26 35
39 27 40
39 28 5
39 29 3
39 30 26
39 31 26
39 32 5
39 33 40
39 34 11
39 35 11
39 36 30
39 37 13
39 38 29
40 0 4
40 1 9
40 2 22
40 3 32
40 4 8
40 5 18
40 6 38
40 7 34
40 8 19
40 9 39
40 10 23
40 11 11
40 12 6
40 13 37
40 14 39
40 15 35
40 16 25
40 17 23
40 18 36
40 19 39
40 20 39
40 21 8
40 22 1
40 23 14
40 24 29
40 25 9
40 26 15
40 27 7
40 28 2
40 29 19
40 30 7
40 31 4
40 32 2
40 33 18
40 34 28
40 35 35
40 36 37
40 37 40
40 38 14
40 39 33
41 0 4
41 1 14
41 2 34
41 3 20
41 4 40
41 5 26
41 6 19
41 7 24
41 8 27
41 9 29
41 10 23
41 11 39
41 12 10
41 13 8
41 14 36
41 15 5
41 16 21
41 17 21
41 18 17
41 19 29
41 20 33
41 21 17
41 22 30
41 23 40
41 24 34
41 25 39
41 26 1
41 27 1
41 28 19
41 29 2
41 30 20
41 31 38
41 32 9
41 33 1
41 34 27
41 35 14
41 36 15
41 37 9
41 38 24
41 39 30
41 40 28
42 0 26
42 1 12
42 2 39
42 3 11
42 4 5
42 5 2
42 6 7
42 7 39
42 8 5
42 9 31
42 10 20
42 11 11
42 12 38
42 13 8
42 14 34
42 15 1
42 16 18
42 17 17
42 18 38
42 19 36
42 20 1
42 21 29
42 22 38
42 23 26
42 24 34
42 25 7
42 26 17
42 27 29
42 28 16
42 29 11
42 30 34
42 31 20
42 32 38
42 33 23
42 34 21
42 35 20
42 36 15
42 37 32
42 38 20
42 39 3
42 40 19
42 41 24
43 0 16
43 1 23
43 2 30
43 3 14
43 4 40
43 5 4
43 6 17
43 7 22
43 8 12
43 9 39
43 10 36
43 11 18
43 12 31
43 13 40
43 14 34
43 15 10
43 16 1
43 17 29
43 18 16
43 19 9
43 20 33
43 21 27
43 22 2
43 23 30
43 24 26
43 25 36
43 26 35
43 27 35
43 28 29
43 29 16
43 30 12
43 31 8
43 32 17
43 33 29
43 34 40
43 35 35
43 36 29
43 37 40
43 38 7
43 39 5
43 40 28
43 41 29
43 42 36
44 0 28
44 1 19
44 2 5
44 3 16
44 4 4
44 5 3
44 6 25
44 7 31
44 8 11
44 9 40
44 10 35
44 11 2
44 12 23
44 13 28
44 14 14
44 15 29
44 16 28
44 17 3
44 18 20
44 19 18
44 20 9
44 21 25
44 22 1
44 23 3
44 24 35
44 25 3
44 26 20
44 27 24
44 28 19
44 29 19
44 30 30
44 31 22
44 32 21
44 33 7
44 34 23
44 35 35
44 36 22
44 37 2
44 38 22
44 39 9
44 40 36
44 41 37
44 42 10
44 43 24
45 0 22
45 1 10
45 2 1
45 3 13
45 4 39
45 5 10
45 6 10
45 7 36
45 8 10
45 9 3
45 10 14
45 11 23
45 12 11
45 13 33
45 14 20
45 15 4
45 16 36
45 17 28
45 18 27
45 19 22
45 20 12
45 21 36
45 22 38
45 23 29
45 24 19
45 25 32
45 26 1
45 27 28
45 28 21
45 29 13
45 30 36
45 31 37
45 32 14
45 33 3
45 34 36
45 35 6
45 36 36
45 37 15
45 38 13
45 39 22
45 40 6
45 41 27
45 42 29
45 43 6
45 44 4
46 0 16
46 1 25
46 2 25
46 3 40
46 4 40
46 5 21
46 6 26
46 7 7
46 8 20
46 9 13
46 10 13
46 11 10
46 12 21
46 13 17
46 14 5
46 15 37
46 16 40
46 17 9
46 18 24
46 19 7
46 20 38
46 21 37
46 22 27
46 23 28
46 24 31
46 25 21
46 26 9
46 27 14
46 28 5
46 29 24
46 30 21
46 31 2
46 32 28
46 33 17
46 34 17
46 35 10
46 36 22
46 37 8
46 38 22
46 39 23
46 40 25
46 41 26
46 42 35
46 43 5
46 44 27
46 45 6
47 0 14
47 1 30
47 2 28
47 3 15
47 4 21
47 5 9
47 6 26
47 7 29
47 8 13
47 9 2
47 10 3
47 11 12
47 12 20
47 13 18
47 14 34
47 15 15
47 16 9
47 17 31
47 18 2
47 19 39
47 20 40
47 21 6
47 22 38
47 23 32
47 24 34
47 25 18
47 26 22
47 27 6
47 28 15
47 29 22
47 30 33
47 31 14
47 32 6
47 33 33
47 34 3
47 35 25
47 36 33
47 37 3
47 38 32
47 39 31
47 40 14
47 41 14
47 42 39
47 43 2
47 44 26
47 45 19
47 46 32
48 0 25
48 1 26
48 2 14
48 3 5
48 4 4
48 5 3
48 6 38
48 7 4
48 8 3
48 9 38
48 10 32
48 11 4
48 12 29
48 13 14
48 14 30
48 15 24
48 16 1
48 17 40
48 18 23
48 19 21
48 20 31
48 21 29
48 22 4
48 23 31
48 24 36
48 25 29
48 26 9
48 27 5
48 28 21
48 29 23
48 30 16
48 31 20
48 32 29
48 33 35
48 34 27
48 35 33
48 36 37
48 37 16
48 38 30
48 39 5
48 40 31
48 41 35
48 42 2
48 43 23
48 44 18
48 45 40
48 46 1
48 47 22
49 0 26
49 1 4
49 2 17
49 3 9
49 4 23
49 5 21
49 6 34
49 7 28
49 8 28
49 9 5
49 10 39
49 11 9
49 12 15
49 13 26
49 14 16
49 15 33
49 16 3
49 17 26
49 18 33
49 19 10
49 20 10
49 21 29
49 22 5
49 23 11
49 24 7
49 25 14
49 26 15
49 27 26
49 28 31
49 29 37
49 30 4
49 31 6
49 32 19
49 33 6
49 34 10
49 35 34
49 36 7
49 37 17
49 38 18
49 39 9
49 40 37
49 41 27
49 42 34
49 43 26
49 44 15
49 45 29
49 46 17
49 47 39
49 48 26
